(benchmark gametime
:status unknown
:logic QF_AUFBV
:extrafuns ((gtINDEX75  BitVec[32]))
:extrafuns ((gtFIELD__bitsForTID0__gtAGG____anonstruct_D_Work_4  Array[32:32]))
:extrafuns ((gtINDEX76  BitVec[32]))
:extrafuns ((gtAGG__rtDWork  BitVec[32]))
:extrafuns ((gtINDEX73  BitVec[32]))
:extrafuns ((gtINDEX74  BitVec[32]))
:extrafuns ((gtINDEX71  BitVec[32]))
:extrafuns ((gtINDEX72  BitVec[32]))
:extrafuns ((gtINDEX69  BitVec[32]))
:extrafuns ((gtINDEX70  BitVec[32]))
:extrafuns ((gtINDEX68  BitVec[32]))
:extrafuns ((gtINDEX67  BitVec[32]))
:extrafuns ((gtINDEX66  BitVec[32]))
:extrafuns ((gtINDEX65  BitVec[32]))
:extrafuns ((gtINDEX63  BitVec[32]))
:extrafuns ((gtINDEX64  BitVec[32]))
:extrafuns ((gtINDEX61  BitVec[32]))
:extrafuns ((gtINDEX62  BitVec[32]))
:extrafuns ((gtINDEX59  BitVec[32]))
:extrafuns ((gtINDEX60  BitVec[32]))
:extrafuns ((gtINDEX57  BitVec[32]))
:extrafuns ((gtINDEX58  BitVec[32]))
:extrafuns ((gtINDEX56  BitVec[32]))
:extrafuns ((gtINDEX54  BitVec[32]))
:extrafuns ((gtINDEX55  BitVec[32]))
:extrafuns ((gtINDEX53  BitVec[32]))
:extrafuns ((gtINDEX51  BitVec[32]))
:extrafuns ((gtINDEX52  BitVec[32]))
:extrafuns ((gtINDEX49  BitVec[32]))
:extrafuns ((gtINDEX50  BitVec[32]))
:extrafuns ((gtINDEX48  BitVec[32]))
:extrafuns ((gtINDEX46  BitVec[32]))
:extrafuns ((gtINDEX47  BitVec[32]))
:extrafuns ((gtINDEX45  BitVec[32]))
:extrafuns ((gtINDEX44  BitVec[32]))
:extrafuns ((gtINDEX42  BitVec[32]))
:extrafuns ((gtINDEX43  BitVec[32]))
:extrafuns ((gtINDEX40  BitVec[32]))
:extrafuns ((gtINDEX41  BitVec[32]))
:extrafuns ((gtINDEX38  BitVec[32]))
:extrafuns ((gtINDEX39  BitVec[32]))
:extrafuns ((gtINDEX36  BitVec[32]))
:extrafuns ((gtINDEX37  BitVec[32]))
:extrafuns ((gtINDEX34  BitVec[32]))
:extrafuns ((gtINDEX35  BitVec[32]))
:extrafuns ((gtINDEX32  BitVec[32]))
:extrafuns ((gtINDEX33  BitVec[32]))
:extrafuns ((gtINDEX31  BitVec[32]))
:extrafuns ((gtINDEX30  BitVec[32]))
:extrafuns ((gtINDEX29  BitVec[32]))
:extrafuns ((gtINDEX28  BitVec[32]))
:extrafuns ((gtINDEX27  BitVec[32]))
:extrafuns ((gtINDEX26  BitVec[32]))
:extrafuns ((gtINDEX25  BitVec[32]))
:extrafuns ((gtINDEX23  BitVec[32]))
:extrafuns ((gtINDEX24  BitVec[32]))
:extrafuns ((gtINDEX21  BitVec[32]))
:extrafuns ((gtINDEX22  BitVec[32]))
:extrafuns ((gtINDEX19  BitVec[32]))
:extrafuns ((gtINDEX20  BitVec[32]))
:extrafuns ((gtINDEX17  BitVec[32]))
:extrafuns ((gtINDEX18  BitVec[32]))
:extrafuns ((gtINDEX15  BitVec[32]))
:extrafuns ((gtINDEX16  BitVec[32]))
:extrafuns ((gtINDEX13  BitVec[32]))
:extrafuns ((gtINDEX14  BitVec[32]))
:extrafuns ((gtINDEX12  BitVec[32]))
:extrafuns ((gtINDEX10  BitVec[32]))
:extrafuns ((gtINDEX11  BitVec[32]))
:extrafuns ((gtINDEX8  BitVec[32]))
:extrafuns ((gtINDEX9  BitVec[32]))
:extrafuns ((gtINDEX6  BitVec[32]))
:extrafuns ((gtINDEX7  BitVec[32]))
:extrafuns ((gtINDEX4  BitVec[32]))
:extrafuns ((gtINDEX5  BitVec[32]))
:extrafuns ((gtINDEX2  BitVec[32]))
:extrafuns ((gtINDEX3  BitVec[32]))
:extrafuns ((gtINDEX0  BitVec[32]))
:extrafuns ((gtINDEX1  BitVec[32]))
:extrafuns ((gtFIELD__is_Eng__gtAGG____anonstruct_bitsForTID0_5_1_  Array[32:1]))
:extrafuns ((gtFIELD__is_Eng__gtAGG____anonstruct_bitsForTID0_5_2_  Array[32:1]))
:extrafuns ((sf_previousEvent_1_  BitVec[32]))
:extrafuns ((sfEvent__2_  BitVec[32]))
:extrafuns ((gtFIELD__is_Eng__gtAGG____anonstruct_bitsForTID0_5  Array[32:1]))
:extrafuns ((gtFIELD__sent__gtAGG____anonstruct_D_Work_4_1_  Array[32:32]))
:extrafuns ((gtFIELD__sent__gtAGG____anonstruct_D_Work_4_2_  Array[32:32]))
:extrafuns ((gtFIELD__is_active_Eng__gtAGG____anonstruct_bitsForTID0_5  Array[32:1]))
:extrafuns ((gtFIELD__is_active_PURI__gtAGG____anonstruct_bitsForTID0_5  Array[32:1]))
:extrafuns ((gtFIELD__is_active_PVRP__gtAGG____anonstruct_bitsForTID0_5  Array[32:1]))
:extrafuns ((gtFIELD__temporalCounter_i3__gtAGG____anonstruct_D_Work_4  Array[32:32]))
:extrafuns ((gtFIELD__temporalCounter_i3__gtAGG____anonstruct_D_Work_4_1_  Array[32:32]))
:extrafuns ((gtFIELD__is_PPVARP__gtAGG____anonstruct_bitsForTID0_5  Array[32:2]))
:extrafuns ((gtFIELD__is_PPVARP__gtAGG____anonstruct_bitsForTID0_5_1_  Array[32:2]))
:extrafuns ((gtFIELD__n_t_b__gtAGG____anonstruct_D_Work_4  Array[32:32]))
:extrafuns ((gtFIELD__n_t_b__gtAGG____anonstruct_D_Work_4_1_  Array[32:32]))
:extrafuns ((sfEvent__1_  BitVec[32]))
:extrafuns ((gtFIELD__is_active_PPVARP__gtAGG____anonstruct_bitsForTID0_5  Array[32:1]))
:extrafuns ((gtFIELD__temporalCounter_i2__gtAGG____anonstruct_D_Work_4  Array[32:32]))
:extrafuns ((gtFIELD__temporalCounter_i2__gtAGG____anonstruct_D_Work_4_1_  Array[32:32]))
:extrafuns ((gtFIELD__is_PLRI__gtAGG____anonstruct_bitsForTID0_5  Array[32:2]))
:extrafuns ((gtFIELD__is_PLRI__gtAGG____anonstruct_bitsForTID0_5_1_  Array[32:2]))
:extrafuns ((gtFIELD__n_t_n__gtAGG____anonstruct_D_Work_4  Array[32:32]))
:extrafuns ((gtFIELD__n_t_n__gtAGG____anonstruct_D_Work_4_1_  Array[32:32]))
:extrafuns ((gtFIELD__is_active_PLRI__gtAGG____anonstruct_bitsForTID0_5  Array[32:1]))
:extrafuns ((gtFIELD__is_PAVI__gtAGG____anonstruct_bitsForTID0_5  Array[32:3]))
:extrafuns ((gtFIELD__is_active_PAVI__gtAGG____anonstruct_bitsForTID0_5  Array[32:1]))
:extrafuns ((sfEvent_  BitVec[32]))
:extrafuns ((gtFIELD__sent__gtAGG____anonstruct_D_Work_4  Array[32:32]))
:extrapreds ((constraint138 ))
:extrapreds ((constraint137 ))
:extrapreds ((constraint136 ))
:extrapreds ((constraint135 ))
:extrapreds ((constraint134 ))
:extrapreds ((constraint133 ))
:extrapreds ((constraint132 ))
:extrapreds ((constraint131 ))
:extrapreds ((constraint130 ))
:extrapreds ((constraint129 ))
:extrapreds ((constraint128 ))
:extrapreds ((constraint127 ))
:extrapreds ((constraint126 ))
:extrapreds ((constraint125 ))
:extrapreds ((constraint124 ))
:extrapreds ((constraint123 ))
:extrapreds ((constraint122 ))
:extrapreds ((constraint121 ))
:extrapreds ((constraint120 ))
:extrapreds ((constraint119 ))
:extrapreds ((constraint118 ))
:extrapreds ((constraint117 ))
:extrapreds ((constraint116 ))
:extrapreds ((constraint115 ))
:extrapreds ((constraint114 ))
:extrapreds ((constraint113 ))
:extrapreds ((constraint112 ))
:extrapreds ((constraint111 ))
:extrapreds ((constraint110 ))
:extrapreds ((constraint109 ))
:extrapreds ((constraint108 ))
:extrapreds ((constraint107 ))
:extrapreds ((constraint106 ))
:extrapreds ((constraint105 ))
:extrapreds ((constraint104 ))
:extrapreds ((constraint103 ))
:extrapreds ((constraint102 ))
:extrapreds ((constraint101 ))
:extrapreds ((constraint100 ))
:extrapreds ((constraint99 ))
:extrapreds ((constraint98 ))
:extrapreds ((constraint97 ))
:extrapreds ((constraint96 ))
:extrapreds ((constraint95 ))
:extrapreds ((constraint94 ))
:extrapreds ((constraint93 ))
:extrapreds ((constraint92 ))
:extrapreds ((constraint91 ))
:extrapreds ((constraint90 ))
:extrapreds ((constraint89 ))
:extrapreds ((constraint88 ))
:extrapreds ((constraint87 ))
:extrapreds ((constraint86 ))
:extrapreds ((constraint85 ))
:extrapreds ((constraint84 ))
:extrapreds ((constraint83 ))
:extrapreds ((constraint82 ))
:extrapreds ((constraint81 ))
:extrapreds ((constraint80 ))
:extrapreds ((constraint79 ))
:extrapreds ((constraint78 ))
:extrapreds ((constraint77 ))
:extrapreds ((constraint76 ))
:extrapreds ((constraint75 ))
:extrapreds ((constraint74 ))
:extrapreds ((constraint73 ))
:extrapreds ((constraint72 ))
:extrapreds ((constraint71 ))
:extrapreds ((constraint70 ))
:extrapreds ((constraint69 ))
:extrapreds ((constraint68 ))
:extrapreds ((constraint67 ))
:extrapreds ((constraint66 ))
:extrapreds ((constraint65 ))
:extrapreds ((constraint64 ))
:extrapreds ((constraint63 ))
:extrapreds ((constraint62 ))
:extrapreds ((constraint61 ))
:extrapreds ((constraint60 ))
:extrapreds ((constraint59 ))
:extrapreds ((constraint58 ))
:extrapreds ((constraint57 ))
:extrapreds ((constraint56 ))
:extrapreds ((constraint55 ))
:extrapreds ((constraint54 ))
:extrapreds ((constraint53 ))
:extrapreds ((constraint52 ))
:extrapreds ((constraint51 ))
:extrapreds ((constraint50 ))
:extrapreds ((constraint49 ))
:extrapreds ((constraint48 ))
:extrapreds ((constraint47 ))
:extrapreds ((constraint46 ))
:extrapreds ((constraint45 ))
:extrapreds ((constraint44 ))
:extrapreds ((constraint43 ))
:extrapreds ((constraint42 ))
:extrapreds ((constraint41 ))
:extrapreds ((constraint40 ))
:extrapreds ((constraint39 ))
:extrapreds ((constraint38 ))
:extrapreds ((constraint37 ))
:extrapreds ((constraint36 ))
:extrapreds ((constraint35 ))
:extrapreds ((constraint34 ))
:extrapreds ((constraint33 ))
:extrapreds ((constraint32 ))
:extrapreds ((constraint31 ))
:extrapreds ((constraint30 ))
:extrapreds ((constraint29 ))
:extrapreds ((constraint28 ))
:extrapreds ((constraint27 ))
:extrapreds ((constraint26 ))
:extrapreds ((constraint25 ))
:extrapreds ((constraint24 ))
:extrapreds ((constraint23 ))
:extrapreds ((constraint22 ))
:extrapreds ((constraint21 ))
:extrapreds ((constraint20 ))
:extrapreds ((constraint19 ))
:extrapreds ((constraint18 ))
:extrapreds ((constraint17 ))
:extrapreds ((constraint16 ))
:extrapreds ((constraint15 ))
:extrapreds ((constraint14 ))
:extrapreds ((constraint13 ))
:extrapreds ((constraint12 ))
:extrapreds ((constraint11 ))
:extrapreds ((constraint10 ))
:extrapreds ((constraint9 ))
:extrapreds ((constraint8 ))
:extrapreds ((constraint7 ))
:extrapreds ((constraint6 ))
:extrapreds ((constraint5 ))
:extrapreds ((constraint4 ))
:extrapreds ((constraint3 ))
:extrapreds ((constraint2 ))
:extrapreds ((constraint1 ))
:extrapreds ((constraint0 ))
:formula
(flet ($x698 (and constraint0 constraint1 constraint2 constraint3 constraint4 constraint5 constraint6 constraint7 constraint8 constraint9 constraint10 constraint11 constraint12 constraint13 constraint14 constraint15 constraint16 constraint17 constraint18 constraint19 constraint20 constraint21 constraint22 constraint23 constraint24 constraint25 constraint26 constraint27 constraint28 constraint29 constraint30 constraint31 constraint32 constraint33 constraint34 constraint35 constraint36 constraint37 constraint38 constraint39 constraint40 constraint41 constraint42 constraint43 constraint44 constraint45 constraint46 constraint47 constraint48 constraint49 constraint50 constraint51 constraint52 constraint53 constraint54 constraint55 constraint56 constraint57 constraint58 constraint59 constraint60 constraint61 constraint62 constraint63 constraint64 constraint65 constraint66 constraint67 constraint68 constraint69 constraint70 constraint71 constraint72 constraint73 constraint74 constraint75 constraint76 constraint77 constraint78 constraint79 constraint80 constraint81 constraint82 constraint83 constraint84 constraint85 constraint86 constraint87 constraint88 constraint89 constraint90 constraint91 constraint92 constraint93 constraint94 constraint95 constraint96 constraint97 constraint98 constraint99 constraint100 constraint101 constraint102 constraint103 constraint104 constraint105 constraint106 constraint107 constraint108 constraint109 constraint110 constraint111 constraint112 constraint113 constraint114 constraint115 constraint116 constraint117 constraint118 constraint119 constraint120 constraint121 constraint122 constraint123 constraint124 constraint125 constraint126 constraint127 constraint128 constraint129 constraint130 constraint131 constraint132 constraint133 constraint134 constraint135 constraint136 constraint137 constraint138))
(flet ($x418 (= gtINDEX76 (select gtFIELD__bitsForTID0__gtAGG____anonstruct_D_Work_4 gtINDEX75)))
(flet ($x414 (= gtINDEX74 (select gtFIELD__bitsForTID0__gtAGG____anonstruct_D_Work_4 gtINDEX73)))
(flet ($x410 (= gtINDEX72 (select gtFIELD__bitsForTID0__gtAGG____anonstruct_D_Work_4 gtINDEX71)))
(flet ($x406 (= gtINDEX70 (select gtFIELD__bitsForTID0__gtAGG____anonstruct_D_Work_4 gtINDEX69)))
(flet ($x398 (= gtINDEX64 (select gtFIELD__bitsForTID0__gtAGG____anonstruct_D_Work_4 gtINDEX63)))
(flet ($x394 (= gtINDEX62 (select gtFIELD__bitsForTID0__gtAGG____anonstruct_D_Work_4 gtINDEX61)))
(flet ($x390 (= gtINDEX60 (select gtFIELD__bitsForTID0__gtAGG____anonstruct_D_Work_4 gtINDEX59)))
(flet ($x386 (= gtINDEX58 (select gtFIELD__bitsForTID0__gtAGG____anonstruct_D_Work_4 gtINDEX57)))
(flet ($x381 (= gtINDEX55 (select gtFIELD__bitsForTID0__gtAGG____anonstruct_D_Work_4 gtINDEX54)))
(flet ($x376 (= gtINDEX52 (select gtFIELD__bitsForTID0__gtAGG____anonstruct_D_Work_4 gtINDEX51)))
(flet ($x372 (= gtINDEX50 (select gtFIELD__bitsForTID0__gtAGG____anonstruct_D_Work_4 gtINDEX49)))
(flet ($x367 (= gtINDEX47 (select gtFIELD__bitsForTID0__gtAGG____anonstruct_D_Work_4 gtINDEX46)))
(flet ($x361 (= gtINDEX43 (select gtFIELD__bitsForTID0__gtAGG____anonstruct_D_Work_4 gtINDEX42)))
(flet ($x357 (= gtINDEX41 (select gtFIELD__bitsForTID0__gtAGG____anonstruct_D_Work_4 gtINDEX40)))
(flet ($x353 (= gtINDEX39 (select gtFIELD__bitsForTID0__gtAGG____anonstruct_D_Work_4 gtINDEX38)))
(flet ($x349 (= gtINDEX37 (select gtFIELD__bitsForTID0__gtAGG____anonstruct_D_Work_4 gtINDEX36)))
(flet ($x345 (= gtINDEX35 (select gtFIELD__bitsForTID0__gtAGG____anonstruct_D_Work_4 gtINDEX34)))
(flet ($x341 (= gtINDEX33 (select gtFIELD__bitsForTID0__gtAGG____anonstruct_D_Work_4 gtINDEX32)))
(flet ($x330 (= gtINDEX24 (select gtFIELD__bitsForTID0__gtAGG____anonstruct_D_Work_4 gtINDEX23)))
(flet ($x326 (= gtINDEX22 (select gtFIELD__bitsForTID0__gtAGG____anonstruct_D_Work_4 gtINDEX21)))
(flet ($x322 (= gtINDEX20 (select gtFIELD__bitsForTID0__gtAGG____anonstruct_D_Work_4 gtINDEX19)))
(flet ($x318 (= gtINDEX18 (select gtFIELD__bitsForTID0__gtAGG____anonstruct_D_Work_4 gtINDEX17)))
(flet ($x314 (= gtINDEX16 (select gtFIELD__bitsForTID0__gtAGG____anonstruct_D_Work_4 gtINDEX15)))
(flet ($x310 (= gtINDEX14 (select gtFIELD__bitsForTID0__gtAGG____anonstruct_D_Work_4 gtINDEX13)))
(flet ($x305 (= gtINDEX11 (select gtFIELD__bitsForTID0__gtAGG____anonstruct_D_Work_4 gtINDEX10)))
(flet ($x301 (= gtINDEX9 (select gtFIELD__bitsForTID0__gtAGG____anonstruct_D_Work_4 gtINDEX8)))
(flet ($x297 (= gtINDEX7 (select gtFIELD__bitsForTID0__gtAGG____anonstruct_D_Work_4 gtINDEX6)))
(flet ($x293 (= gtINDEX5 (select gtFIELD__bitsForTID0__gtAGG____anonstruct_D_Work_4 gtINDEX4)))
(flet ($x289 (= gtINDEX3 (select gtFIELD__bitsForTID0__gtAGG____anonstruct_D_Work_4 gtINDEX2)))
(flet ($x285 (= gtINDEX1 (select gtFIELD__bitsForTID0__gtAGG____anonstruct_D_Work_4 gtINDEX0)))
(let (?x269 (extract[0:0] bv1[32]))
(let (?x279 (store gtFIELD__is_Eng__gtAGG____anonstruct_bitsForTID0_5_1_ gtINDEX76 ?x269))
(flet ($x542 (iff constraint61 (= gtFIELD__is_Eng__gtAGG____anonstruct_bitsForTID0_5_2_ ?x279)))
(let (?x275 (select gtFIELD__is_Eng__gtAGG____anonstruct_bitsForTID0_5_1_ gtINDEX74))
(let (?x270 (store gtFIELD__is_Eng__gtAGG____anonstruct_bitsForTID0_5 gtINDEX72 ?x269))
(flet ($x536 (iff constraint58 (= gtFIELD__is_Eng__gtAGG____anonstruct_bitsForTID0_5_1_ ?x270)))
(let (?x266 (zero_extend[31] (select gtFIELD__is_Eng__gtAGG____anonstruct_bitsForTID0_5 gtINDEX70)))
(let (?x262 (store gtFIELD__sent__gtAGG____anonstruct_D_Work_4_1_ gtINDEX68 bv0[32]))
(flet ($x532 (iff constraint56 (= gtFIELD__sent__gtAGG____anonstruct_D_Work_4_2_ ?x262)))
(let (?x143 (bvmul bv4294967295[32] bv1[32]))
(flet ($x260 (= (select gtFIELD__sent__gtAGG____anonstruct_D_Work_4_1_ gtINDEX67) ?x143))
(flet ($x256 (= (select gtFIELD__sent__gtAGG____anonstruct_D_Work_4_1_ gtINDEX66) bv9[32]))
(flet ($x252 (= (select gtFIELD__sent__gtAGG____anonstruct_D_Work_4_1_ gtINDEX65) bv4[32]))
(let (?x248 (zero_extend[31] (select gtFIELD__is_Eng__gtAGG____anonstruct_bitsForTID0_5 gtINDEX64)))
(let (?x242 (select gtFIELD__is_active_Eng__gtAGG____anonstruct_bitsForTID0_5 gtINDEX62))
(let (?x236 (select gtFIELD__is_active_PURI__gtAGG____anonstruct_bitsForTID0_5 gtINDEX60))
(let (?x230 (select gtFIELD__is_active_PVRP__gtAGG____anonstruct_bitsForTID0_5 gtINDEX58))
(let (?x227 (store gtFIELD__temporalCounter_i3__gtAGG____anonstruct_D_Work_4 gtINDEX56 bv0[32]))
(flet ($x516 (iff constraint48 (= gtFIELD__temporalCounter_i3__gtAGG____anonstruct_D_Work_4_1_ ?x227)))
(let (?x224 (store gtFIELD__is_PPVARP__gtAGG____anonstruct_bitsForTID0_5 gtINDEX55 (extract[1:0] bv2[32])))
(flet ($x514 (iff constraint47 (= gtFIELD__is_PPVARP__gtAGG____anonstruct_bitsForTID0_5_1_ ?x224)))
(flet ($x221 (= gtFIELD__n_t_b__gtAGG____anonstruct_D_Work_4_1_ (store gtFIELD__n_t_b__gtAGG____anonstruct_D_Work_4 gtINDEX53 bv0[32])))
(let (?x216 (select gtFIELD__is_PPVARP__gtAGG____anonstruct_bitsForTID0_5 gtINDEX52))
(let (?x211 (select gtFIELD__is_active_PPVARP__gtAGG____anonstruct_bitsForTID0_5 gtINDEX50))
(let (?x208 (store gtFIELD__temporalCounter_i2__gtAGG____anonstruct_D_Work_4 gtINDEX48 bv0[32]))
(flet ($x504 (iff constraint42 (= gtFIELD__temporalCounter_i2__gtAGG____anonstruct_D_Work_4_1_ ?x208)))
(let (?x205 (store gtFIELD__is_PLRI__gtAGG____anonstruct_bitsForTID0_5 gtINDEX47 (extract[1:0] bv1[32])))
(flet ($x502 (iff constraint41 (= gtFIELD__is_PLRI__gtAGG____anonstruct_bitsForTID0_5_1_ ?x205)))
(flet ($x202 (= gtFIELD__n_t_n__gtAGG____anonstruct_D_Work_4_1_ (store gtFIELD__n_t_n__gtAGG____anonstruct_D_Work_4 gtINDEX45 bv0[32])))
(flet ($x198 (= (select gtFIELD__sent__gtAGG____anonstruct_D_Work_4_1_ gtINDEX44) bv0[32]))
(let (?x193 (select gtFIELD__is_PLRI__gtAGG____anonstruct_bitsForTID0_5 gtINDEX43))
(let (?x188 (select gtFIELD__is_active_PLRI__gtAGG____anonstruct_bitsForTID0_5 gtINDEX41))
(let (?x182 (select gtFIELD__is_PAVI__gtAGG____anonstruct_bitsForTID0_5 gtINDEX39))
(let (?x177 (select gtFIELD__is_PAVI__gtAGG____anonstruct_bitsForTID0_5 gtINDEX37))
(let (?x172 (select gtFIELD__is_PAVI__gtAGG____anonstruct_bitsForTID0_5 gtINDEX35))
(let (?x167 (select gtFIELD__is_active_PAVI__gtAGG____anonstruct_bitsForTID0_5 gtINDEX33))
(flet ($x159 (= gtFIELD__sent__gtAGG____anonstruct_D_Work_4_1_ (store gtFIELD__sent__gtAGG____anonstruct_D_Work_4 gtINDEX31 ?x143)))
(flet ($x156 (= (select gtFIELD__sent__gtAGG____anonstruct_D_Work_4 gtINDEX30) bv3[32]))
(flet ($x152 (= (select gtFIELD__sent__gtAGG____anonstruct_D_Work_4 gtINDEX29) bv2[32]))
(flet ($x148 (= (select gtFIELD__sent__gtAGG____anonstruct_D_Work_4 gtINDEX28) bv1[32]))
(flet ($x144 (= (select gtFIELD__sent__gtAGG____anonstruct_D_Work_4 gtINDEX27) ?x143))
(flet ($x138 (= (select gtFIELD__sent__gtAGG____anonstruct_D_Work_4 gtINDEX26) bv9[32]))
(flet ($x133 (= (select gtFIELD__sent__gtAGG____anonstruct_D_Work_4 gtINDEX25) bv4[32]))
(let (?x129 (zero_extend[31] (select gtFIELD__is_Eng__gtAGG____anonstruct_bitsForTID0_5 gtINDEX24)))
(let (?x123 (select gtFIELD__is_active_Eng__gtAGG____anonstruct_bitsForTID0_5 gtINDEX22))
(let (?x117 (select gtFIELD__is_active_PURI__gtAGG____anonstruct_bitsForTID0_5 gtINDEX20))
(let (?x111 (select gtFIELD__is_active_PVRP__gtAGG____anonstruct_bitsForTID0_5 gtINDEX18))
(let (?x105 (select gtFIELD__is_PPVARP__gtAGG____anonstruct_bitsForTID0_5 gtINDEX16))
(let (?x100 (select gtFIELD__is_active_PPVARP__gtAGG____anonstruct_bitsForTID0_5 gtINDEX14))
(flet ($x89 (= (select gtFIELD__sent__gtAGG____anonstruct_D_Work_4 gtINDEX12) bv0[32]))
(let (?x84 (select gtFIELD__is_PLRI__gtAGG____anonstruct_bitsForTID0_5 gtINDEX11))
(let (?x79 (select gtFIELD__is_active_PLRI__gtAGG____anonstruct_bitsForTID0_5 gtINDEX9))
(let (?x72 (zero_extend[29] (select gtFIELD__is_PAVI__gtAGG____anonstruct_bitsForTID0_5 gtINDEX7)))
(let (?x66 (zero_extend[29] (select gtFIELD__is_PAVI__gtAGG____anonstruct_bitsForTID0_5 gtINDEX5)))
(let (?x60 (zero_extend[29] (select gtFIELD__is_PAVI__gtAGG____anonstruct_bitsForTID0_5 gtINDEX3)))
(let (?x53 (select gtFIELD__is_active_PAVI__gtAGG____anonstruct_bitsForTID0_5 gtINDEX1))
(flet ($x697 (and (iff constraint0 (not (= sfEvent_ bv8[32]))) (iff constraint1 (not (= (zero_extend[31] ?x53) bv0[32]))) (iff constraint2 (not (= ?x60 bv1[32]))) (iff constraint3 (not (= ?x66 bv2[32]))) (iff constraint4 (= ?x72 bv3[32])) (iff constraint5 (not (= sfEvent_ bv6[32]))) (iff constraint6 (not (= (zero_extend[31] ?x79) bv0[32]))) (iff constraint7 (= (zero_extend[30] ?x84) bv1[32])) (iff constraint8 (not $x89)) (iff constraint9 (not (= sfEvent_ bv4[32]))) (iff constraint10 (not (= sfEvent_ bv5[32]))) (iff constraint11 (not (= sfEvent_ bv3[32]))) (iff constraint12 (not (= (zero_extend[31] ?x100) bv0[32]))) (iff constraint13 (= (zero_extend[30] ?x105) bv1[32])) (iff constraint14 (not (= sfEvent_ bv4[32]))) (iff constraint15 (not (= sfEvent_ bv5[32]))) (iff constraint16 (not (= sfEvent_ bv1[32]))) (iff constraint17 (not (not (= (zero_extend[31] ?x111) bv0[32])))) (iff constraint18 (not (not (= (zero_extend[31] ?x117) bv0[32])))) (iff constraint19 (not (= (zero_extend[31] ?x123) bv0[32]))) (iff constraint20 (= ?x129 bv1[32])) (iff constraint21 (not $x133)) (iff constraint22 (not $x138)) (iff constraint23 (not $x144)) (iff constraint24 (not $x148)) (iff constraint25 (not $x152)) (iff constraint26 $x156) (iff constraint27 $x159) (iff constraint28 (= sf_previousEvent_1_ sfEvent_)) (iff constraint29 (= sfEvent__1_ bv4[32])) (iff constraint30 (not (= sfEvent__1_ bv8[32]))) (iff constraint31 (not (= (zero_extend[31] ?x167) bv0[32]))) (iff constraint32 (not (= (zero_extend[29] ?x172) bv1[32]))) (iff constraint33 (not (= (zero_extend[29] ?x177) bv2[32]))) (iff constraint34 (= (zero_extend[29] ?x182) bv3[32])) (iff constraint35 (not (= sfEvent__1_ bv6[32]))) (iff constraint36 (not (= (zero_extend[31] ?x188) bv0[32]))) (iff constraint37 (= (zero_extend[30] ?x193) bv1[32])) (iff constraint38 (not $x198)) (iff constraint39 (= sfEvent__1_ bv4[32])) (iff constraint40 $x202) $x502 $x504 (iff constraint43 (not (= (zero_extend[31] ?x211) bv0[32]))) (iff constraint44 (= (zero_extend[30] ?x216) bv1[32])) (iff constraint45 (= sfEvent__1_ bv4[32])) (iff constraint46 $x221) $x514 $x516 (iff constraint49 (not (not (= (zero_extend[31] ?x230) bv0[32])))) (iff constraint50 (not (not (= (zero_extend[31] ?x236) bv0[32])))) (iff constraint51 (not (= (zero_extend[31] ?x242) bv0[32]))) (iff constraint52 (= ?x248 bv1[32])) (iff constraint53 (not $x252)) (iff constraint54 (not $x256)) (iff constraint55 $x260) $x532 (iff constraint57 (= ?x266 bv1[32])) $x536 (iff constraint59 (= sfEvent__2_ sf_previousEvent_1_)) (iff constraint60 (= (zero_extend[31] ?x275) bv1[32])) $x542 (iff constraint62 (= gtINDEX0 gtAGG__rtDWork)) (iff constraint63 $x285) (iff constraint64 (= gtINDEX2 gtAGG__rtDWork)) (iff constraint65 $x289) (iff constraint66 (= gtINDEX4 gtAGG__rtDWork)) (iff constraint67 $x293) (iff constraint68 (= gtINDEX6 gtAGG__rtDWork)) (iff constraint69 $x297) (iff constraint70 (= gtINDEX8 gtAGG__rtDWork)) (iff constraint71 $x301) (iff constraint72 (= gtINDEX10 gtAGG__rtDWork)) (iff constraint73 $x305) (iff constraint74 (= gtINDEX12 gtAGG__rtDWork)) (iff constraint75 (= gtINDEX13 gtAGG__rtDWork)) (iff constraint76 $x310) (iff constraint77 (= gtINDEX15 gtAGG__rtDWork)) (iff constraint78 $x314) (iff constraint79 (= gtINDEX17 gtAGG__rtDWork)) (iff constraint80 $x318) (iff constraint81 (= gtINDEX19 gtAGG__rtDWork)) (iff constraint82 $x322) (iff constraint83 (= gtINDEX21 gtAGG__rtDWork)) (iff constraint84 $x326) (iff constraint85 (= gtINDEX23 gtAGG__rtDWork)) (iff constraint86 $x330) (iff constraint87 (= gtINDEX25 gtAGG__rtDWork)) (iff constraint88 (= gtINDEX26 gtAGG__rtDWork)) (iff constraint89 (= gtINDEX27 gtAGG__rtDWork)) (iff constraint90 (= gtINDEX28 gtAGG__rtDWork)) (iff constraint91 (= gtINDEX29 gtAGG__rtDWork)) (iff constraint92 (= gtINDEX30 gtAGG__rtDWork)) (iff constraint93 (= gtINDEX31 gtAGG__rtDWork)) (iff constraint94 (= gtINDEX32 gtAGG__rtDWork)) (iff constraint95 $x341) (iff constraint96 (= gtINDEX34 gtAGG__rtDWork)) (iff constraint97 $x345) (iff constraint98 (= gtINDEX36 gtAGG__rtDWork)) (iff constraint99 $x349) (iff constraint100 (= gtINDEX38 gtAGG__rtDWork)) (iff constraint101 $x353) (iff constraint102 (= gtINDEX40 gtAGG__rtDWork)) (iff constraint103 $x357) (iff constraint104 (= gtINDEX42 gtAGG__rtDWork)) (iff constraint105 $x361) (iff constraint106 (= gtINDEX44 gtAGG__rtDWork)) (iff constraint107 (= gtINDEX45 gtAGG__rtDWork)) (iff constraint108 (= gtINDEX46 gtAGG__rtDWork)) (iff constraint109 $x367) (iff constraint110 (= gtINDEX48 gtAGG__rtDWork)) (iff constraint111 (= gtINDEX49 gtAGG__rtDWork)) (iff constraint112 $x372) (iff constraint113 (= gtINDEX51 gtAGG__rtDWork)) (iff constraint114 $x376) (iff constraint115 (= gtINDEX53 gtAGG__rtDWork)) (iff constraint116 (= gtINDEX54 gtAGG__rtDWork)) (iff constraint117 $x381) (iff constraint118 (= gtINDEX56 gtAGG__rtDWork)) (iff constraint119 (= gtINDEX57 gtAGG__rtDWork)) (iff constraint120 $x386) (iff constraint121 (= gtINDEX59 gtAGG__rtDWork)) (iff constraint122 $x390) (iff constraint123 (= gtINDEX61 gtAGG__rtDWork)) (iff constraint124 $x394) (iff constraint125 (= gtINDEX63 gtAGG__rtDWork)) (iff constraint126 $x398) (iff constraint127 (= gtINDEX65 gtAGG__rtDWork)) (iff constraint128 (= gtINDEX66 gtAGG__rtDWork)) (iff constraint129 (= gtINDEX67 gtAGG__rtDWork)) (iff constraint130 (= gtINDEX68 gtAGG__rtDWork)) (iff constraint131 (= gtINDEX69 gtAGG__rtDWork)) (iff constraint132 $x406) (iff constraint133 (= gtINDEX71 gtAGG__rtDWork)) (iff constraint134 $x410) (iff constraint135 (= gtINDEX73 gtAGG__rtDWork)) (iff constraint136 $x414) (iff constraint137 (= gtINDEX75 gtAGG__rtDWork)) (iff constraint138 $x418)))
(and $x697 $x698)))))))))))))))))))))))))))))))))))))))))))))))))))))))))))))))))))))))))))))))))))))))))
)
